(set-logic QF_BV)
(declare-fun x0 () (_ BitVec 32))
(declare-fun x1 () (_ BitVec 32))
(declare-fun x2 () (_ BitVec 16))
(declare-fun x3 () Bool)
(declare-fun x4 () (_ BitVec 32))
(declare-fun x5 () Bool)
(declare-fun x6 () (_ BitVec 32))
(declare-fun x7 () (_ BitVec 32))
(declare-fun x8 () (_ BitVec 32))
(declare-fun x9 () (_ BitVec 32))
(declare-fun x10 () Bool)
(declare-fun x11 () (_ BitVec 32))
(declare-fun x12 () (_ BitVec 8))
(declare-fun x13 () (_ BitVec 16))
(declare-fun x14 () Bool)
(declare-fun x15 () Bool)
(declare-fun x16 () Bool)
(declare-fun x17 () (_ BitVec 8))
(declare-fun x18 () (_ BitVec 8))
(declare-fun x19 () (_ BitVec 32))
(declare-fun x20 () (_ BitVec 32))
(declare-fun x21 () (_ BitVec 32))
(declare-fun x22 () (_ BitVec 32))
(declare-fun x23 () (_ BitVec 32))
(declare-fun x24 () (_ BitVec 8))
(declare-fun x25 () (_ BitVec 8))
(declare-fun x26 () (_ BitVec 8))
(declare-fun x27 () (_ BitVec 8))
(assert (let ( (?v_31 ((_ zero_extend 24) x18)) (?v_12 (_ bv0 32))) (let ((?v_23 (bvadd x4 x20))) (let ((?v_29 (bvadd (bvadd ?v_23 (_ bv0 32)) (_ bv0 32)))) (let ((?v_1 (bvsub (bvadd (bvadd ?v_29 (_ bv0 32)) ?v_31) (_ bv4263015 32)))) (let ((?v_39 (bvsub (_ bv0 32) (_ bv1 32))) (?v_40 (bvadd ?v_1 (_ bv4263036 32)))) (let ((?v_34 x19)) (let ( (?v_33 (_ bv0 32)) (?v_24 (bvsub ?v_23 (_ bv4263015 32)))) (let ((?v_27 (bvadd ?v_24 (_ bv4263016 32)))) (let ((?v_26 (bvsub (bvadd ?v_27 (_ bv0 32)) (_ bv1 32))) (?v_15 (_ bv0 32))) (let ( (?v_19 (_ bv0 32))) (and true x3 true x15 true (bvule (_ bv8 32) x9) true x10 x14 (not (= (_ bv0 32) ?v_26)) (bvult x8 ?v_26) (not false) (not (= ?v_27 (_ bv0 32))) true x16 x5 true (bvule ?v_39 ?v_40) true))))))))))))
(check-sat)
(exit)
